; benchmark generated from python API
(set-info :status unknown)
(declare-fun DISJ_W_S1_R_S2 () Bool)
(declare-fun W_S2_V5 () Bool)
(declare-fun W_S1_V4 () Bool)
(declare-fun W_S1_V5 () Bool)
(declare-fun R_S1_V4 () Bool)
(declare-fun DISJ_W_S2_R_S2 () Bool)
(declare-fun DISJ_W_S2_R_S1 () Bool)
(declare-fun R_E1_V4 () Bool)
(declare-fun R_E1_V5 () Bool)
(declare-fun W_S2_V2 () Bool)
(declare-fun W_S2_V3 () Bool)
(declare-fun W_S2_V1 () Bool)
(declare-fun R_S2_V4 () Bool)
(declare-fun R_S2_V5 () Bool)
(declare-fun R_S2_V2 () Bool)
(declare-fun R_S2_V3 () Bool)
(declare-fun R_S2_V1 () Bool)
(declare-fun R_S1_V5 () Bool)
(declare-fun R_S1_V2 () Bool)
(declare-fun R_S1_V3 () Bool)
(declare-fun R_S1_V1 () Bool)
(declare-fun R_E1_V2 () Bool)
(declare-fun DISJ_W_S2_R_E1 () Bool)
(declare-fun DISJ_W_S1_W_S2 () Bool)
(declare-fun R_E1_V3 () Bool)
(declare-fun DISJ_W_S1_R_S1 () Bool)
(declare-fun W_S2_V4 () Bool)
(declare-fun W_S1_V3 () Bool)
(declare-fun W_S1_V2 () Bool)
(declare-fun W_S1_V1 () Bool)
(declare-fun R_E1_V1 () Bool)
(declare-fun DISJ_W_S1_R_E1 () Bool)
(assert
 (let (($x959 (not W_S2_V5)))
 (let (($x3023 (not W_S1_V4)))
 (let (($x1236 (not W_S1_V5)))
 (let (($x1354 (not R_S1_V4)))
 (let (($x5040 (not (and $x1354 $x1236 $x3023 $x959 DISJ_W_S1_R_S2))))
 (let (($x2518 (and DISJ_W_S2_R_S1 DISJ_W_S2_R_S2)))
 (let (($x3846 (not $x2518)))
 (let (($x2364 (not (and W_S1_V4 R_E1_V4))))
 (let (($x637 (not (and W_S1_V5 R_E1_V5))))
 (let (($x1159 (forall ((V3_0 Int) )(forall ((V2_0 Int) )(forall ((V5_0 Int) )(forall ((V4_0 Int) )(forall ((MW_S1_V1 Bool) )(forall ((MW_S1_V3 Bool) )(forall ((MW_S1_V2 Bool) )(forall ((MW_S1_V5 Bool) )(forall ((MW_S1_V4 Bool) )(forall ((MW_S2_V1 Bool) )(forall ((MW_S2_V3 Bool) )(forall ((MW_S2_V2 Bool) )(forall ((MW_S2_V5 Bool) )(forall ((MW_S2_V4 Bool) )(forall ((S1_V1_!6442 Int) )(forall ((S1_V1_!6447 Int) )(forall ((S1_V1_!6464 Int) )(forall ((S1_V1_!6474 Int) )(forall ((S2_V5_!6456 Int) )(forall ((S2_V5_!6461 Int) )(forall ((S2_V5_!6472 Int) )(forall ((S2_V5_!6482 Int) )(forall ((S1_V3_!6443 Int) )(forall ((S1_V3_!6448 Int) )(forall ((S1_V3_!6465 Int) )(forall ((S1_V3_!6475 Int) )(forall ((S1_V2_!6444 Int) )(forall ((S1_V2_!6449 Int) )(forall ((S1_V2_!6466 Int) )(forall ((S1_V2_!6476 Int) )(forall ((E1_!6441 Int) )(forall ((E1_!6452 Int) )(forall ((E1_!6463 Int) )(forall ((S2_V4_!6457 Int) )(forall ((S2_V4_!6462 Int) )(forall ((S2_V4_!6473 Int) )(forall ((S2_V4_!6483 Int) )(forall ((S1_V5_!6445 Int) )(forall ((S1_V5_!6450 Int) )(forall ((S1_V5_!6467 Int) )(forall ((S1_V5_!6477 Int) )(forall ((S2_V1_!6453 Int) )(forall ((S2_V1_!6458 Int) )(forall ((S2_V1_!6469 Int) )(forall ((S2_V1_!6479 Int) )(forall ((S1_V4_!6446 Int) )(forall ((S1_V4_!6451 Int) )(forall ((S1_V4_!6468 Int) )(forall ((S1_V4_!6478 Int) )(forall ((S2_V2_!6455 Int) )(forall ((S2_V2_!6460 Int) )(forall ((S2_V2_!6471 Int) )(forall ((S2_V2_!6481 Int) )(forall ((S2_V3_!6454 Int) )(forall ((S2_V3_!6459 Int) )(forall ((S2_V3_!6470 Int) )(forall ((S2_V3_!6480 Int) )(let (($x4212 (= (ite MW_S2_V4 S2_V4_!6462 (ite MW_S1_V4 S1_V4_!6451 V4_0)) (ite MW_S2_V4 S2_V4_!6483 (ite MW_S1_V4 S1_V4_!6478 (ite MW_S2_V4 S2_V4_!6473 (ite MW_S1_V4 S1_V4_!6468 V4_0)))))))
 (let (($x1768 (= (ite MW_S2_V5 S2_V5_!6461 (ite MW_S1_V5 S1_V5_!6450 V5_0)) (ite MW_S2_V5 S2_V5_!6482 (ite MW_S1_V5 S1_V5_!6477 (ite MW_S2_V5 S2_V5_!6472 (ite MW_S1_V5 S1_V5_!6467 V5_0)))))))
 (let ((?x780 (ite MW_S1_V2 S1_V2_!6466 V2_0)))
 (let ((?x2818 (ite MW_S2_V2 S2_V2_!6471 ?x780)))
 (let ((?x1317 (ite MW_S1_V2 S1_V2_!6476 ?x2818)))
 (let ((?x710 (ite MW_S2_V2 S2_V2_!6481 ?x1317)))
 (let ((?x4163 (ite MW_S1_V2 S1_V2_!6449 V2_0)))
 (let ((?x4825 (ite MW_S2_V2 S2_V2_!6460 ?x4163)))
 (let (($x3715 (= (ite MW_S2_V3 S2_V3_!6459 (ite MW_S1_V3 S1_V3_!6448 V3_0)) (ite MW_S2_V3 S2_V3_!6480 (ite MW_S1_V3 S1_V3_!6475 (ite MW_S2_V3 S2_V3_!6470 (ite MW_S1_V3 S1_V3_!6465 V3_0)))))))
 (let ((?x3221 (ite MW_S1_V1 S1_V1_!6464 E1_!6463)))
 (let ((?x995 (ite MW_S2_V1 S2_V1_!6469 ?x3221)))
 (let ((?x5060 (+ 1 ?x995)))
 (let ((?x2048 (ite MW_S1_V1 S1_V1_!6474 ?x5060)))
 (let ((?x3536 (ite MW_S2_V1 S2_V1_!6479 ?x2048)))
 (let ((?x2273 (ite MW_S2_V1 S2_V1_!6453 E1_!6452)))
 (let ((?x1277 (+ 1 ?x2273)))
 (let ((?x2616 (ite MW_S2_V1 S2_V1_!6458 ?x1277)))
 (let (($x1081 (>= (ite MW_S1_V1 S1_V1_!6447 (+ 1 (ite MW_S1_V1 S1_V1_!6442 E1_!6441))) (+ (- 1) ?x4163))))
 (let (($x860 (and (not (<= V2_0 E1_!6441)) (not (<= (ite MW_S1_V2 S1_V2_!6444 V2_0) (+ 1 (ite MW_S1_V1 S1_V1_!6442 E1_!6441)))) $x1081 (not (<= ?x4163 E1_!6452)) (not (<= (ite MW_S2_V2 S2_V2_!6455 ?x4163) ?x1277)) (>= ?x2616 (+ (- 1) ?x4825)) (not (<= V2_0 E1_!6463)) (not (<= ?x2818 ?x5060)) (>= ?x3536 (+ (- 1) ?x710)))))
 (let (($x32 (= S2_V3_!6470 S2_V3_!6480)))
 (let ((?x1122 (ite MW_S1_V4 S1_V4_!6468 V4_0)))
 (let ((?x3129 (ite MW_S2_V4 S2_V4_!6473 ?x1122)))
 (let ((?x542 (ite MW_S1_V4 S1_V4_!6478 ?x3129)))
 (let (($x725 (not R_S2_V4)))
 (let ((?x5105 (ite MW_S1_V5 S1_V5_!6467 V5_0)))
 (let ((?x3323 (ite MW_S2_V5 S2_V5_!6472 ?x5105)))
 (let ((?x2001 (ite MW_S1_V5 S1_V5_!6477 ?x3323)))
 (let (($x465 (not R_S2_V5)))
 (let ((?x1777 (ite MW_S1_V3 S1_V3_!6465 V3_0)))
 (let ((?x4315 (ite MW_S2_V3 S2_V3_!6470 ?x1777)))
 (let ((?x844 (ite MW_S1_V3 S1_V3_!6475 ?x4315)))
 (let (($x1962 (not R_S2_V3)))
 (let (($x858 (and (or (not R_S2_V1) (= ?x3221 ?x2048)) (or $x1962 (= ?x1777 ?x844)) (or (not R_S2_V2) (= ?x780 ?x1317)) (or $x465 (= ?x5105 ?x2001)) (or $x725 (= ?x1122 ?x542)))))
 (let (($x4865 (not $x858)))
 (let (($x3466 (= S2_V3_!6470 S2_V3_!6454)))
 (let (($x2166 (and (or (not R_S2_V1) (= ?x3221 E1_!6452)) (or $x1962 (= ?x1777 (ite MW_S1_V3 S1_V3_!6448 V3_0))) (or (not R_S2_V2) (= ?x780 ?x4163)) (or $x465 (= ?x5105 (ite MW_S1_V5 S1_V5_!6450 V5_0))) (or $x725 (= ?x1122 (ite MW_S1_V4 S1_V4_!6451 V4_0))))))
 (let (($x1367 (not $x2166)))
 (let (($x2070 (= S2_V3_!6459 S2_V3_!6480)))
 (let (($x181 (and (or (not R_S2_V1) (= ?x2273 (+ (- 1) ?x2048))) (or $x1962 (= (ite MW_S2_V3 S2_V3_!6454 (ite MW_S1_V3 S1_V3_!6448 V3_0)) ?x844)) (or (not R_S2_V2) (= (ite MW_S2_V2 S2_V2_!6455 ?x4163) ?x1317)) (or $x465 (= (ite MW_S2_V5 S2_V5_!6456 (ite MW_S1_V5 S1_V5_!6450 V5_0)) ?x2001)) (or $x725 (= (ite MW_S2_V4 S2_V4_!6457 (ite MW_S1_V4 S1_V4_!6451 V4_0)) ?x542)))))
 (let (($x2475 (not $x181)))
 (let (($x3980 (= S2_V3_!6459 S2_V3_!6470)))
 (let (($x3166 (and (or (not R_S2_V1) (= ?x2273 (+ (- 1) ?x3221))) (or $x1962 (= (ite MW_S2_V3 S2_V3_!6454 (ite MW_S1_V3 S1_V3_!6448 V3_0)) ?x1777)) (or (not R_S2_V2) (= (ite MW_S2_V2 S2_V2_!6455 ?x4163) ?x780)) (or $x465 (= (ite MW_S2_V5 S2_V5_!6456 (ite MW_S1_V5 S1_V5_!6450 V5_0)) ?x5105)) (or $x725 (= (ite MW_S2_V4 S2_V4_!6457 (ite MW_S1_V4 S1_V4_!6451 V4_0)) ?x1122)))))
 (let (($x5026 (not $x3166)))
 (let (($x3184 (= S2_V3_!6459 S2_V3_!6454)))
 (let (($x914 (or $x725 (= (ite MW_S2_V4 S2_V4_!6457 (ite MW_S1_V4 S1_V4_!6451 V4_0)) (ite MW_S1_V4 S1_V4_!6451 V4_0)))))
 (let (($x215 (or $x465 (= (ite MW_S2_V5 S2_V5_!6456 (ite MW_S1_V5 S1_V5_!6450 V5_0)) (ite MW_S1_V5 S1_V5_!6450 V5_0)))))
 (let (($x4647 (or $x1962 (= (ite MW_S2_V3 S2_V3_!6454 (ite MW_S1_V3 S1_V3_!6448 V3_0)) (ite MW_S1_V3 S1_V3_!6448 V3_0)))))
 (let (($x2150 (and (or (not R_S2_V1) (= ?x2273 (+ (- 1) E1_!6452))) $x4647 (or (not R_S2_V2) (= (ite MW_S2_V2 S2_V2_!6455 ?x4163) ?x4163)) $x215 $x914)))
 (let (($x526 (not $x2150)))
 (let (($x800 (= S2_V3_!6454 S2_V3_!6480)))
 (let (($x3620 (and (or (not R_S2_V1) (= E1_!6452 ?x2048)) (or $x1962 (= (ite MW_S1_V3 S1_V3_!6448 V3_0) ?x844)) (or (not R_S2_V2) (= ?x4163 ?x1317)) (or $x465 (= (ite MW_S1_V5 S1_V5_!6450 V5_0) ?x2001)) (or $x725 (= (ite MW_S1_V4 S1_V4_!6451 V4_0) ?x542)))))
 (let (($x4670 (not $x3620)))
 (let (($x5215 (= S2_V2_!6481 S2_V2_!6460)))
 (let (($x235 (and (or (not R_S2_V1) (= ?x2048 ?x1277)) (or $x1962 (= ?x844 (ite MW_S2_V3 S2_V3_!6454 (ite MW_S1_V3 S1_V3_!6448 V3_0)))) (or (not R_S2_V2) (= ?x1317 (ite MW_S2_V2 S2_V2_!6455 ?x4163))) (or $x465 (= ?x2001 (ite MW_S2_V5 S2_V5_!6456 (ite MW_S1_V5 S1_V5_!6450 V5_0)))) (or $x725 (= ?x542 (ite MW_S2_V4 S2_V4_!6457 (ite MW_S1_V4 S1_V4_!6451 V4_0)))))))
 (let (($x1010 (= S2_V2_!6481 S2_V2_!6455)))
 (let (($x4043 (and (or (not R_S2_V1) (= ?x2048 E1_!6452)) (or $x1962 (= ?x844 (ite MW_S1_V3 S1_V3_!6448 V3_0))) (or (not R_S2_V2) (= ?x1317 ?x4163)) (or $x465 (= ?x2001 (ite MW_S1_V5 S1_V5_!6450 V5_0))) (or $x725 (= ?x542 (ite MW_S1_V4 S1_V4_!6451 V4_0))))))
 (let (($x2893 (not $x4043)))
 (let (($x1296 (= S2_V2_!6471 S2_V2_!6460)))
 (let (($x1603 (and (or (not R_S2_V1) (= ?x3221 ?x1277)) (or $x1962 (= ?x1777 (ite MW_S2_V3 S2_V3_!6454 (ite MW_S1_V3 S1_V3_!6448 V3_0)))) (or (not R_S2_V2) (= ?x780 (ite MW_S2_V2 S2_V2_!6455 ?x4163))) (or $x465 (= ?x5105 (ite MW_S2_V5 S2_V5_!6456 (ite MW_S1_V5 S1_V5_!6450 V5_0)))) (or $x725 (= ?x1122 (ite MW_S2_V4 S2_V4_!6457 (ite MW_S1_V4 S1_V4_!6451 V4_0)))))))
 (let (($x4184 (and (or (not R_S1_V1) (= ?x995 (ite MW_S1_V1 S1_V1_!6442 E1_!6441))) (or (not R_S1_V3) (= ?x4315 (ite MW_S1_V3 S1_V3_!6443 V3_0))) (or (not R_S1_V2) (= ?x2818 (ite MW_S1_V2 S1_V2_!6444 V2_0))) (or (not R_S1_V5) (= ?x3323 (ite MW_S1_V5 S1_V5_!6445 V5_0))) (or (not R_S1_V4) (= ?x3129 (ite MW_S1_V4 S1_V4_!6446 V4_0))))))
 (let (($x2793 (not $x4184)))
 (let (($x1354 (not R_S1_V4)))
 (let (($x4054 (or $x1354 (= V4_0 ?x3129))))
 (let (($x1155 (not R_S1_V5)))
 (let (($x4619 (or $x1155 (= V5_0 ?x3323))))
 (let (($x2618 (not R_S1_V2)))
 (let (($x2396 (or $x2618 (= V2_0 ?x2818))))
 (let (($x3411 (not R_S1_V3)))
 (let (($x678 (or $x3411 (= V3_0 ?x4315))))
 (let (($x792 (not (and (or (not R_S1_V1) (= E1_!6463 ?x5060)) $x678 $x2396 $x4619 $x4054))))
 (let (($x559 (or $x1354 (= V4_0 (ite MW_S1_V4 S1_V4_!6446 V4_0)))))
 (let (($x2365 (or $x1155 (= V5_0 (ite MW_S1_V5 S1_V5_!6445 V5_0)))))
 (let (($x1140 (or $x2618 (= V2_0 (ite MW_S1_V2 S1_V2_!6444 V2_0)))))
 (let (($x5830 (or $x3411 (= V3_0 (ite MW_S1_V3 S1_V3_!6443 V3_0)))))
 (let (($x2861 (and (or (not R_S1_V1) (= E1_!6463 (+ 1 (ite MW_S1_V1 S1_V1_!6442 E1_!6441)))) $x5830 $x1140 $x2365 $x559)))
 (let (($x1652 (not $x2861)))
 (let (($x1960 (not (and (or (not R_S1_V1) (= E1_!6441 ?x5060)) $x678 $x2396 $x4619 $x4054))))
 (let (($x4869 (and (or (not R_S1_V1) (= E1_!6441 (+ 1 (ite MW_S1_V1 S1_V1_!6442 E1_!6441)))) $x5830 $x1140 $x2365 $x559)))
 (let (($x2939 (not $x4869)))
 (let (($x957 (or $x1354 (= ?x3129 V4_0))))
 (let (($x3167 (or $x1155 (= ?x3323 V5_0))))
 (let (($x937 (or $x2618 (= ?x2818 V2_0))))
 (let (($x536 (or $x3411 (= ?x4315 V3_0))))
 (let (($x3070 (and (or (not R_S1_V1) (= ?x995 (+ (- 1) E1_!6463))) $x536 $x937 $x3167 $x957)))
 (let (($x2354 (not $x3070)))
 (let (($x40 (and (or (not R_S1_V1) (= ?x995 (+ (- 1) E1_!6441))) $x536 $x937 $x3167 $x957)))
 (let (($x3858 (not $x40)))
 (let (($x5239 (= S2_V4_!6483 S2_V4_!6473)))
 (let (($x4945 (and (or (not R_S2_V1) (= ?x2048 ?x3221)) (or $x1962 (= ?x844 ?x1777)) (or (not R_S2_V2) (= ?x1317 ?x780)) (or $x465 (= ?x2001 ?x5105)) (or $x725 (= ?x542 ?x1122)))))
 (let (($x2206 (= E1_!6452 E1_!6463)))
 (let (($x6 (and (or (not R_E1_V2) (= ?x4163 V2_0)) (or (not R_E1_V5) (= (ite MW_S1_V5 S1_V5_!6450 V5_0) V5_0)) (or (not R_E1_V4) (= (ite MW_S1_V4 S1_V4_!6451 V4_0) V4_0)))))
 (let (($x3368 (= E1_!6441 E1_!6463)))
 (let (($x3316 (and (or (not R_E1_V2) (= V2_0 ?x4163)) (or (not R_E1_V5) (= V5_0 (ite MW_S1_V5 S1_V5_!6450 V5_0))) (or (not R_E1_V4) (= V4_0 (ite MW_S1_V4 S1_V4_!6451 V4_0))))))
 (let (($x1284 (= S1_V2_!6449 S1_V2_!6476)))
 (let (($x191 (and (or (not R_S1_V1) (= (ite MW_S1_V1 S1_V1_!6442 E1_!6441) ?x995)) (or $x3411 (= (ite MW_S1_V3 S1_V3_!6443 V3_0) ?x4315)) (or $x2618 (= (ite MW_S1_V2 S1_V2_!6444 V2_0) ?x2818)) (or $x1155 (= (ite MW_S1_V5 S1_V5_!6445 V5_0) ?x3323)) (or $x1354 (= (ite MW_S1_V4 S1_V4_!6446 V4_0) ?x3129)))))
 (let (($x5006 (not $x191)))
 (let (($x3506 (or $x1354 (= (ite MW_S1_V4 S1_V4_!6446 V4_0) V4_0))))
 (let (($x2921 (or $x1155 (= (ite MW_S1_V5 S1_V5_!6445 V5_0) V5_0))))
 (let (($x6079 (or $x2618 (= (ite MW_S1_V2 S1_V2_!6444 V2_0) V2_0))))
 (let (($x2753 (or $x3411 (= (ite MW_S1_V3 S1_V3_!6443 V3_0) V3_0))))
 (let (($x1733 (and (or (not R_S1_V1) (= (ite MW_S1_V1 S1_V1_!6442 E1_!6441) (+ (- 1) E1_!6463))) $x2753 $x6079 $x2921 $x3506)))
 (let (($x4878 (not $x1733)))
 (let (($x2212 (and (or (not R_S1_V1) (= (ite MW_S1_V1 S1_V1_!6442 E1_!6441) (+ (- 1) E1_!6441))) $x2753 $x6079 $x2921 $x3506)))
 (let (($x3000 (not $x2212)))
 (let (($x5769 (and (or (not R_S2_V1) (= E1_!6452 ?x3221)) (or $x1962 (= (ite MW_S1_V3 S1_V3_!6448 V3_0) ?x1777)) (or (not R_S2_V2) (= ?x4163 ?x780)) (or $x465 (= (ite MW_S1_V5 S1_V5_!6450 V5_0) ?x5105)) (or $x725 (= (ite MW_S1_V4 S1_V4_!6451 V4_0) ?x1122)))))
 (let (($x3280 (and (or (not (or (not R_S1_V1) $x3368)) (= S1_V1_!6442 S1_V1_!6464)) (or $x3000 (= S1_V1_!6447 S1_V1_!6442)) (or $x4878 (= S1_V1_!6447 S1_V1_!6464)) (or $x3858 (= S1_V1_!6474 S1_V1_!6442)) (or $x2793 (= S1_V1_!6474 S1_V1_!6447)) (or $x2354 (= S1_V1_!6474 S1_V1_!6464)) (or (not $x5769) (= S2_V5_!6456 S2_V5_!6472)) (or $x4670 (= S2_V5_!6456 S2_V5_!6482)) (or $x526 (= S2_V5_!6461 S2_V5_!6456)) (or $x5026 (= S2_V5_!6461 S2_V5_!6472)) (or $x2475 (= S2_V5_!6461 S2_V5_!6482)) (or $x4865 (= S2_V5_!6472 S2_V5_!6482)) (or (not (or (not R_S1_V1) $x3368)) (= S1_V3_!6443 S1_V3_!6465)) (or $x1960 (= S1_V3_!6443 S1_V3_!6475)) (or $x3000 (= S1_V3_!6448 S1_V3_!6443)) (or $x4878 (= S1_V3_!6448 S1_V3_!6465)) (or $x5006 (= S1_V3_!6448 S1_V3_!6475)) (or $x792 (= S1_V3_!6465 S1_V3_!6475)) (or (not (or (not R_S1_V1) $x3368)) (= S1_V2_!6444 S1_V2_!6466)) (or $x3000 (= S1_V2_!6449 S1_V2_!6444)) (or $x4878 (= S1_V2_!6449 S1_V2_!6466)) (or $x5006 $x1284) (or $x3858 (= S1_V2_!6476 S1_V2_!6444)) (or $x2354 (= S1_V2_!6476 S1_V2_!6466)) (or (not $x3316) (= E1_!6441 E1_!6452)) $x3368 (or (not $x6) $x2206) (or $x526 (= S2_V4_!6462 S2_V4_!6457)) (or $x5026 (= S2_V4_!6462 S2_V4_!6473)) (or $x2475 (= S2_V4_!6462 S2_V4_!6483)) (or $x1367 (= S2_V4_!6473 S2_V4_!6457)) (or $x2893 (= S2_V4_!6483 S2_V4_!6457)) (or (not $x4945) $x5239) (or $x2939 (= S1_V5_!6445 S1_V5_!6450)) (or (not (or (not R_S1_V1) (= E1_!6463 E1_!6441))) (= S1_V5_!6467 S1_V5_!6445)) (or $x1652 (= S1_V5_!6467 S1_V5_!6450)) (or $x3858 (= S1_V5_!6477 S1_V5_!6445)) (or $x2793 (= S1_V5_!6477 S1_V5_!6450)) (or $x2354 (= S1_V5_!6477 S1_V5_!6467)) (or $x526 (= S2_V1_!6458 S2_V1_!6453)) (or $x5026 (= S2_V1_!6458 S2_V1_!6469)) (or $x2475 (= S2_V1_!6458 S2_V1_!6479)) (or $x1367 (= S2_V1_!6469 S2_V1_!6453)) (or $x4865 (= S2_V1_!6469 S2_V1_!6479)) (or $x2893 (= S2_V1_!6479 S2_V1_!6453)) (or $x2939 (= S1_V4_!6446 S1_V4_!6451)) (or $x1960 (= S1_V4_!6446 S1_V4_!6478)) (or (not (or (not R_S1_V1) (= E1_!6463 E1_!6441))) (= S1_V4_!6468 S1_V4_!6446)) (or $x1652 (= S1_V4_!6468 S1_V4_!6451)) (or $x792 (= S1_V4_!6468 S1_V4_!6478)) (or $x2793 (= S1_V4_!6478 S1_V4_!6451)) (or $x526 (= S2_V2_!6460 S2_V2_!6455)) (or $x1367 (= S2_V2_!6471 S2_V2_!6455)) (or (not $x1603) $x1296) (or $x4865 (= S2_V2_!6471 S2_V2_!6481)) (or $x2893 $x1010) (or (not $x235) $x5215) (or $x4670 $x800) (or $x526 $x3184) (or $x5026 $x3980) (or $x2475 $x2070) (or $x1367 $x3466) (or $x4865 $x32) (not MW_S1_V1) (not MW_S1_V2) (or (not MW_S1_V5) W_S1_V5) (or (not MW_S1_V4) W_S1_V4) (or (not MW_S2_V1) W_S2_V1) (or (not MW_S2_V3) W_S2_V3) (or (not MW_S2_V2) W_S2_V2) (or (not MW_S2_V5) W_S2_V5))))
 (or (not $x3280) (not $x860) (and (= ?x2616 ?x3536) $x3715 (= ?x4825 ?x710) $x1768 $x4212)))))))))))))))))))))))))))))))))))))))))))))))))))))))))))))))))))))))))))))))))))))))))))))))))))))))))))))
 )
 )
 )
 )
 )
 )
 )
 )
 )
 )
 )
 )
 )
 )
 )
 )
 )
 )
 )
 )
 )
 )
 )
 )
 )
 )
 )
 )
 )
 )
 )
 )
 )
 )
 )
 )
 )
 )
 )
 )
 )
 )
 )
 )
 )
 )
 )
 )
 )
 )
 )
 )
 )
 )
 )
 )
 ))
 (let (($x1575 (or (and W_S2_V2 R_E1_V2) (and W_S2_V5 R_E1_V5) R_E1_V4)))
 (let (($x2571 (= DISJ_W_S2_R_E1 (not $x1575))))
 (let (($x1750 (and W_S2_V5 R_S2_V5)))
 (let (($x4061 (and W_S2_V2 R_S2_V2)))
 (let (($x3475 (and W_S2_V3 R_S2_V3)))
 (let (($x813 (and W_S2_V1 R_S2_V1)))
 (let (($x3427 (= DISJ_W_S2_R_S2 (not (or $x813 $x3475 $x4061 $x1750 R_S2_V4)))))
 (let (($x1511 (and W_S2_V5 R_S1_V5)))
 (let (($x2385 (and W_S2_V2 R_S1_V2)))
 (let (($x5370 (and W_S2_V3 R_S1_V3)))
 (let (($x4521 (and W_S2_V1 R_S1_V1)))
 (let (($x1651 (= DISJ_W_S2_R_S1 (not (or $x4521 $x5370 $x2385 $x1511 R_S1_V4)))))
 (let (($x2035 (= DISJ_W_S1_W_S2 (not (or W_S2_V3 (and W_S1_V5 W_S2_V5) W_S1_V4)))))
 (let (($x5336 (not R_E1_V3)))
 (let (($x5795 (or R_S2_V3 (and W_S1_V5 R_S2_V5) (and W_S1_V4 R_S2_V4))))
 (let (($x3993 (= DISJ_W_S1_R_S2 (not $x5795))))
 (let (($x1390 (not (or R_S1_V3 (and W_S1_V5 R_S1_V5) (and W_S1_V4 R_S1_V4)))))
 (let (($x5759 (= DISJ_W_S1_R_S1 $x1390)))
 (let (($x2128 (not W_S2_V3)))
 (let (($x2438 (not W_S2_V2)))
 (let (($x725 (not R_S2_V4)))
 (let (($x2724 (not R_S2_V1)))
 (let (($x4683 (and $x2724 $x725 $x2438 $x2128 DISJ_W_S2_R_S1)))
 (let (($x465 (not R_S2_V5)))
 (let (($x5981 (and $x465 $x725 $x2128 DISJ_W_S2_R_S1)))
 (let (($x2869 (and $x725 $x1236 $x2128 DISJ_W_S2_R_S1)))
 (let (($x1580 (and $x2724 $x465 $x2438 $x2128 DISJ_W_S2_R_S1)))
 (let (($x593 (and $x465 $x3023 $x2128 DISJ_W_S2_R_S1)))
 (let (($x2096 (and $x2724 $x2438 $x959 $x2128 DISJ_W_S2_R_S1)))
 (let (($x4147 (and DISJ_W_S1_W_S2 DISJ_W_S2_R_S1)))
 (let (($x1962 (not R_S2_V3)))
 (let (($x4993 (and $x2724 $x1962 $x465 $x2438 DISJ_W_S2_R_S1)))
 (let (($x5020 (and $x2724 $x1962 $x725 $x2438 DISJ_W_S2_R_S1)))
 (let (($x4088 (and $x2724 $x725 $x2438 $x959 DISJ_W_S2_R_S1)))
 (let (($x454 (and $x2724 $x465 $x725 $x2438 DISJ_W_S2_R_S1)))
 (let (($x3643 (and $x2724 $x1962 $x2438 $x959 DISJ_W_S2_R_S1)))
 (let (($x3254 (and (not W_S2_V1) $x2438)))
 (let (($x4881 (and $x1962 $x725 $x959 DISJ_W_S2_R_S1)))
 (let (($x1189 (and $x725 $x959 $x2128 DISJ_W_S2_R_S1)))
 (let (($x118 (and $x1962 $x3023 $x959 DISJ_W_S2_R_S1)))
 (let (($x2144 (and DISJ_W_S1_R_S2 DISJ_W_S2_R_S1)))
 (let (($x2008 (and $x2438 DISJ_W_S2_R_S2)))
 (let (($x1605 (or $x2518 $x2008 $x2144 $x118 $x1189 $x4881 $x3254 $x3643 $x454 $x4088 $x5020 $x4993 $x4147 $x2096 $x593 $x1580 $x2869 $x5981 $x4683)))
 (let (($x4803 (not R_S1_V1)))
 (let (($x3041 (and $x4803 DISJ_W_S1_R_S1)))
 (let (($x2888 (and $x2438 DISJ_W_S2_R_S1 DISJ_W_S1_R_S1)))
 (let (($x3487 (or $x2888 $x3254 $x3041)))
 (let (($x2592 (not W_S1_V2)))
 (let (($x256 (not W_S1_V1)))
 (let (($x2812 (not R_E1_V1)))
 (let (($x1859 (and DISJ_W_S1_R_E1 $x2812 $x256 $x2592 $x3487 $x1605 W_S1_V3 W_S2_V4 $x5759 $x3993 $x5336 $x2035 $x1651 $x3427 $x2571 $x1159 $x637 $x2364)))
 (and $x1859 $x3846 $x5040)))))))))))))))))))))))))))))))))))))))))))))))))))))))))))))))
(check-sat)
